# This is the control script for LAMMPS

echo			both
log		1.1_Initialize.out

#-------------------------------------------------------------------------------
# Stage 1.1: Initialize LAMMPS run for 3-d periodic
#-------------------------------------------------------------------------------

units                   real
boundary                p p p
atom_style              full

pair_style              lj/class2/coul/long 11.5
kspace_style            pppm 0.00001
pair_modify             tail yes
bond_style              class2
angle_style             class2
dihedral_style          class2
improper_style          class2
special_bonds           lj/coul 0.0 0.0 1.0

read_data               structure.dat
Reading data file ...
  orthogonal box = (0 0 0) to (18.270999 18.270999 18.270999)
  1 by 1 by 1 MPI processor grid
  reading atoms ...
  560 atoms
  scanning bonds ...
  4 = max bonds/atom
  scanning angles ...
  6 = max angles/atom
  scanning dihedrals ...
  15 = max dihedrals/atom
  scanning impropers ...
  4 = max impropers/atom
  orthogonal box = (0 0 0) to (18.270999 18.270999 18.270999)
  1 by 1 by 1 MPI processor grid
  reading bonds ...
  510 bonds
  reading angles ...
  880 angles
  reading dihedrals ...
  930 dihedrals
  reading impropers ...
  560 impropers
Finding 1-2 1-3 1-4 neighbors ...
  special bond factors lj:    0        0        1
  special bond factors coul:  0        0        1
     4 = max # of 1-2 neighbors
     6 = max # of 1-3 neighbors
    10 = max # of special neighbors
  special bonds CPU = 0.002 seconds
  read_data CPU = 0.082 seconds

include                 pairparameters.dat
pair_coeff      1 1   0.0634 3.7584      # c2 - c2
pair_coeff      1 2   0.0661 3.820       # c2 - c3
pair_coeff      1 3   0.0687 3.814       # c2 - c4o
pair_coeff      1 4   0.0382 3.318       # c2 - h
pair_coeff      1 5   0.0225 2.422       # c2 - h*
pair_coeff      1 6   0.0778 3.669       # c2 - o
pair_coeff      2 2   0.071 3.884        # c3 - c3
pair_coeff      2 3   0.0728 3.877       # c3 - c40
pair_coeff      2 4   0.0405 3.381       # c3 - h
pair_coeff      2 5   0.0238 2.485       # c3 - h*
pair_coeff      2 6   0.0825 3.732       # c3 - o
pair_coeff      3 3   0.0748 3.87        # c4o - c4o
pair_coeff      3 4   0.0414 3.374       # c4o - h
pair_coeff      3 5   0.0245 2.478       # c4o - h*
pair_coeff      3 6   0.0849 3.725       # c4o - o
pair_coeff      4 4   0.023 2.878        # h - h
pair_coeff      4 5   0.0135 1.983       # h - h*
pair_coeff      4 6   0.0470 3.229       # h - o
pair_coeff      5 5   0.008 1.087        # h* - h*
pair_coeff      6 6   0.096 3.58         # o - o
pair_coeff      5 6   0.0276 2.334       # h* - o

neighbor                3.0 multi #2.0 bien
neigh_modify            delay 0 every 1 check yes

variable                R               equal 0.00198722
variable                sysvol          equal vol
variable                sysmass         equal mass(all)/6.0221367e+023
variable                sysdensity      equal v_sysmass/v_sysvol/1.0e-24
variable                coulomb         equal ecoul+elong
variable                etotal          equal etotal
variable                pe              equal pe
variable                ke              equal ke
variable                evdwl           equal evdwl
variable                epair           equal epair
variable                ebond           equal ebond
variable                eangle          equal eangle
variable                edihed          equal edihed
variable                eimp            equal eimp
variable                lx              equal lx
variable                ly              equal ly
variable                lz              equal lz
variable                Nthermo         equal 0
variable                cella           equal lx
variable                cellb           equal sqrt(ly*ly+xy*xy)
variable                cellc           equal sqrt(lz*lz+xz*xz+yz*yz)
variable                cellalpha       equal acos((xy*xz+ly*yz)/(v_cellb*v_cellc))
variable                cellbeta        equal acos(xz/v_cellc)
variable                cellgamma       equal acos(xy/v_cellb)
variable                p               equal press
variable                pxx             equal pxx
variable                pyy             equal pyy
variable                pzz             equal pzz
variable                pyz             equal pyz
variable                pxz             equal pxz
variable                pxy             equal pxy
variable                sxx             equal -pxx
variable                syy             equal -pyy
variable                szz             equal -pzz
variable                syz             equal -pyz
variable                sxz             equal -pxz
variable                sxy             equal -pxy
variable                fmax            equal fmax
variable                fnorm           equal fnorm
variable                time   equal step*dt+0.000001
variable               t_npt   equal 100000
variable               Ne     equal  10
variable               Nf     equal ${t_npt}/10
variable               Nf     equal 100000/10
variable               Nr     equal ${Nf}/${Ne}
variable               Nr     equal 10000/${Ne}
variable               Nr     equal 10000/10



thermo_style            custom step v_time press vol v_sysdensity temp ebond eangle edihed eimp evdwl ecoul etail elong pe ke

thermo_modify           flush yes


#
# Set up the fixed and movable groups
#

group           movable union all
560 atoms in group movable
group           fixed subtract all movable
0 atoms in group fixed

log             1.1_NPT.out
#-------------------------------------------------------------------------------
# Stage 1.1: NPT integration for 100 fs with a timestep of 0.1 fs
#             Temperature 298.15 K
#             Pressure 0.1 MPa
#-------------------------------------------------------------------------------

reset_timestep          0
thermo_style            custom step v_time press vol v_sysdensity temp ebond eangle edihed eimp evdwl ecoul etail elong pe ke
WARNING: New thermo_style command, previous thermo_modify settings will be lost (src/output.cpp:904)
thermo                  500
fix                     1 movable npt temp 298.15 298.15 100 iso 0.9869233 0.9869233 100 drag 0 mtk yes

fix                    Dens    all ave/time 100 1 100 v_sysdensity file eta_hex.dens
fix                    DensAve all ave/time ${Ne} ${Nr} ${Nf} v_sysdensity file prom_eta_hex.dens
fix                    DensAve all ave/time 10 ${Nr} ${Nf} v_sysdensity file prom_eta_hex.dens
fix                    DensAve all ave/time 10 1000 ${Nf} v_sysdensity file prom_eta_hex.dens
fix                    DensAve all ave/time 10 1000 10000 v_sysdensity file prom_eta_hex.dens

dump                    trj all custom 10000 1.2.Trajectory.xyz id mol type q x y z
fix                     trjE all ave/time 10 1 10000 v_etotal v_pe v_ke file 1.2.energies.txt
timestep                1.0
run                     ${t_npt}
run                     100000

CITE-CITE-CITE-CITE-CITE-CITE-CITE-CITE-CITE-CITE-CITE-CITE-CITE

Your simulation uses code contributions which should be cited:
- neighbor multi command: doi:10.1016/j.cpc.2008.03.005, doi:10.1007/s40571-020-00361-2
The log file lists these citations in BibTeX format.

CITE-CITE-CITE-CITE-CITE-CITE-CITE-CITE-CITE-CITE-CITE-CITE-CITE

PPPM initialization ...
  using 12-bit tables for long-range coulomb (src/kspace.cpp:342)
  G vector (1/distance) = 0.23607491
  grid = 9 9 9
  stencil order = 5
  estimated absolute RMS force accuracy = 0.0021471093
  estimated relative force accuracy = 6.465956e-06
  using double precision FFTW3
  3d grid and FFT values/proc = 4096 729
Generated 0 of 15 mixed pair_coeff terms from sixthpower/geometric mixing rule
Neighbor list info ...
  update: every = 1 steps, delay = 0 steps, check = yes
  max neighbors/atom: 2000, page size: 100000
  master list distance cutoff = 14.5
  ghost atom cutoff = 14.5
  binsize = 7.25, bins = 3 3 3
  1 neighbor lists, perpetual/occasional/extra = 1 0 0
  (1) pair lj/class2/coul/long, perpetual
      attributes: half, newton on
      pair build: half/multi/newton
      stencil: half/multi/3d
      bin: multi
Setting up Verlet run ...
  Unit style    : real
  Current step  : 0
  Time step     : 1
WARNING: Inconsistent image flags (src/domain.cpp:1051)
Per MPI rank memory allocation (min/avg/max) = 21.44 | 21.44 | 21.44 Mbytes
   Step         v_time         Press          Volume      v_sysdensity       Temp          E_bond        E_angle        E_dihed        E_impro         E_vdwl         E_coul         E_tail         E_long         PotEng         KinEng
         0   1e-06          144915.98      6099.3967      0.73630886     0              248.84155      3828.0168     -197.79774      17.174181      3464.3173      1002.9567     -10.541208     -992.4185       7371.0903      0
       500   500            522.74663      8194.5709      0.54805065     302.07643      148.42834      278.10572     -302.65535     -1.2275902     -156.76206      803.16511     -7.8460499     -999.93534     -230.88119      503.34175
      1000   1000           1259.2156      7420.9143      0.60518687     325.03146      142.20831      234.80369     -311.42064     -0.72199952    -166.18123      751.5058      -8.6640284     -999.91618     -349.72224      541.59109
      1500   1500           1921.7157      6332.3706      0.70921937     303.10163      152.60239      216.8804      -300.86019     -0.93057097    -180.09943      710.7865      -10.153387     -1000.1848     -401.80574      505.05001
      2000   2000          -2656.0282      6640.1489      0.67634626     289.00844      141.46007      227.85659     -313.38852     -0.52440759    -176.60834      707.76087     -9.6827666     -1000.2305     -413.67419      481.5669
      2500   2500          -2222.9853      6364.3822      0.70565213     295.5982       148.54989      211.802       -299.13511     -0.61924385    -192.75807      692.9453      -10.102318     -1001.3318     -440.54708      492.54724
      3000   3000          -1301.6482      6012.541       0.74694541     311.13346      126.35844      211.08697     -308.38839     -0.55856194    -185.94436      673.83665     -10.693484     -1001.917      -485.52627      518.43323
      3500   3500           706.54291      6149.7513      0.73027992     290.49902      134.09824      211.46477     -308.49944     -0.64779298    -185.84371      682.21958     -10.454896     -1001.8759     -469.08428      484.05062
      4000   4000           2312.6785      6043.787       0.74308374     285.95223      137.96381      221.46818     -313.70977     -0.3219398     -196.89945      659.97636     -10.638199     -1002.139      -493.66187      476.47443
      4500   4500          -116.97476      6253.777       0.71813239     302.4644       138.05269      232.78883     -309.73547     -0.97858978    -172.67607      670.50782     -10.280989     -999.46324     -441.50403      503.98821
      5000   5000          -2838.8566      5893.6349      0.76201528     297.10415      160.09391      206.53789     -301.1467      -0.77836939    -188.93956      647.93113     -10.909229     -1001.2522     -477.55392      495.05656
      5500   5500          -1679.0971      5887.9073      0.76275655     293.28738      147.90443      220.93442     -307.91377     -0.44948554    -181.22694      633.64823     -10.919841     -1002.7772     -489.88034      488.69679
      6000   6000           3448.8311      5817.7892      0.77194957     301.9116       140.68089      234.18593     -325.7111      -0.59957187    -177.92527      614.77726     -11.051451     -1001.0112     -515.60304      503.06709
      6500   6500          -3139.9729      6338.9727      0.7084807      298.20458      163.73501      214.56949     -312.37295     -0.93828342    -163.77274      614.62035     -10.142813     -1002.9984     -487.1575       496.89018
      7000   7000           2002.6843      5998.3351      0.7487144      293.06713      148.70076      220.60257     -312.73783     -0.27551561    -187.5571       629.20422     -10.71881      -1002.3635     -504.42638      488.3298
      7500   7500          -567.68674      6448.6849      0.69642724     293.3286       131.54467      226.37959     -307.43574     -0.54509131    -172.03372      615.14816     -9.9702517     -1002.3369     -509.27901      488.76547
      8000   8000          -1116.3083      6471.9439      0.69392441     292.30529      148.3147       244.0264      -315.48435     -0.70596757    -151.9272       599.96691     -9.9344204     -1001.9358     -477.74529      487.06037
      8500   8500          -661.79031      5989.9189      0.74976638     298.23268      139.22997      219.23629     -306.63164     -0.6526275     -187.1864       632.63941     -10.73387      -1002.5101     -505.87507      496.93701
      9000   9000          -134.32624      6069.9183      0.73988473     288.31809      140.36232      223.24986     -325.70375     -0.56725792    -198.19699      642.34231     -10.592402     -1000.7931     -519.30664      480.4166
      9500   9500          -1721.1215      6250.2739      0.71853489     292.10072      162.83059      209.07087     -323.54225     -0.55218929    -167.2078       608.34187     -10.286751     -1001.8344     -512.8933       486.7195
     10000   10000         -793.2758       6069.3062      0.73995935     302.06569      155.43378      210.97112     -313.87217     -0.43806162    -190.00929      638.80972     -10.59347      -1001.7047     -500.8096       503.32385
     10500   10500          1380.3512      6312.2548      0.7114795      299.70453      174.76713      229.04578     -316.81121     -0.95756927    -187.30684      644.83614     -10.185744     -1001.54       -457.9666       499.38951
     11000   11000         -2209.5637      6011.0948      0.74712511     290.11338      154.97805      222.0728      -316.11978     -0.54856379    -181.18941      602.89548     -10.696057     -1001.7582     -519.6696       483.40804
     11500   11500         -1560.0528      5926.0503      0.75784707     286.13584      173.17099      209.26336     -318.65071     -0.69273407    -180.77487      615.48729     -10.849556     -1003.0133     -505.21001      476.78038
     12000   12000         -235.47605      6137.9794      0.7316805      292.23528      161.84974      224.81656     -310.33772     -1.1481314     -180.77107      618.63114     -10.474947     -1001.6924     -488.65191      486.94371
     12500   12500          1260.884       6445.6486      0.6967553      290.10727      152.33142      237.82112     -312.10192     -0.88161994    -167.26934      615.06029     -9.9749483     -1001.9705     -477.01056      483.39787
     13000   13000          1288.3379      5996.9985      0.74888127     295.95894      150.01988      215.55548     -320.79399     -0.76456832    -182.04243      628.24142     -10.721199     -1001.4058     -511.19         493.14834
     13500   13500         -612.4074       5900.6551      0.76110868     282.99571      171.38693      224.47781     -323.57273     -0.31827681    -187.1143       610.95272     -10.89625      -1001.9515     -506.13935      471.54805
     14000   14000         -122.29013      5966.497       0.75270965     306.8134       147.39594      214.68662     -312.17445     -0.86489013    -177.44758      612.66104     -10.776007     -1000.9512     -516.69449      511.23484
     14500   14500          5822.0784      5998.4235      0.74870337     300.76241      144.70429      219.92158     -317.89134     -0.83488573    -171.4721       607.33809     -10.718652     -1001.5482     -519.78253      501.15222
     15000   15000         -3274.3302      6159.1091      0.72917037     284.65637      180.00449      235.37208     -321.6671      -0.89323628    -183.3913       606.19762     -10.439012     -1002.4439     -486.82139      474.31517
     15500   15500         -1182.7371      5911.4601      0.75971753     280.76774      169.21022      218.4008      -324.15583     -0.60928164    -171.98026      590.51959     -10.876334     -1002.3422     -520.95692      467.83566
     16000   16000         -1092.0253      5732.8147      0.78339177     275.60962      155.47199      228.82838     -313.1155      -0.33608636    -194.38952      588.0067      -11.215261     -1001.5508     -537.08482      459.24082
     16500   16500          2396.6596      6095.5787      0.73677006     291.9218       136.41226      232.51773     -321.32037     -0.50741009    -200.17482      619.72225     -10.547811     -1002.4984     -535.84879      486.42137
     17000   17000          224.75569      5789.3123      0.77574669     287.91352      155.11746      215.2129      -308.83678     -1.0112221     -188.9008       604.58692     -11.105812     -1002.9559     -526.78744      479.74247
     17500   17500         -3440.5749      5999.745       0.74853846     299.12756      145.20638      222.64569     -330.0321      -0.47736859    -178.24906      594.5493      -10.716291     -1003.2517     -549.60882      498.42812
     18000   18000          3315.5949      5835.2267      0.76964274     314.06546      167.40319      223.93676     -317.99881     -0.54083857    -172.1807       576.59859     -11.018426     -1002.2439     -525.02569      523.31873
     18500   18500          1423.3518      5960.7081      0.75344066     298.88739      165.57551      229.05901     -325.37498     -0.97883725    -168.99271      590.06775     -10.786472     -1003.4342     -514.07851      498.02793
     19000   19000         -1307.3177      6195.9972      0.72482922     315.61328      159.07748      240.74453     -329.29671     -0.47813776    -186.62948      610.24144     -10.376863     -1001.569      -507.90991      525.89783
     19500   19500          161.05818      5973.6689      0.75180596     309.45093      175.40916      230.6089      -324.26357     -0.24259769    -189.16629      598.69611     -10.763069     -1002.8312     -511.78954      515.62967
     20000   20000         -966.62864      5663.4735      0.79298329     303.8233       182.13918      199.67057     -320.34429     -0.41532009    -175.83777      575.66514     -11.352576     -1002.4295     -541.55203      506.25251
     20500   20500          51.935653      5760.7825      0.77958851     300.94095      161.40447      218.48288     -314.95968     -0.88840053    -191.03089      596.69887     -11.160812     -1003.2819     -533.57468      501.44973
     21000   21000          1219.8678      5710.6708      0.78642948     296.03272      172.56259      221.68953     -324.31885     -0.83537075    -179.02072      580.00139     -11.258749     -1003.454      -533.37549      493.27127
     21500   21500          1700.7214      5713.3114      0.78606601     304.08041      148.67855      233.4842      -313.8619      -0.55980905    -174.73946      571.46846     -11.253546     -1001.9643     -537.49428      506.68091
     22000   22000         -1211.3649      5605.0583      0.80124766     293.89487      124.39006      228.80161     -320.34537     -0.53566315    -192.80428      565.77756     -11.470891     -1004.1267     -598.84277      489.70904
     22500   22500         -460.44637      5735.781       0.78298664     292.63963      156.20882      214.98753     -322.41832     -1.093849      -175.84942      566.38859     -11.209461     -1003.4887     -565.2654       487.61746
     23000   23000          447.18115      5875.0733      0.76442278     286.06248      139.98438      262.40613     -319.8629      -0.079748768   -189.50319      593.52        -10.943695     -1002.9879     -516.52326      476.65813
     23500   23500          469.34359      5684.2618      0.79008322     311.80487      143.41352      225.31176     -317.21773     -0.50429777    -181.32062      564.48144     -11.311058     -1003.7064     -569.54236      519.55197
     24000   24000         -1064.9846      5885.5669      0.76305986     306.56758      163.05391      241.02136     -314.98867     -0.69960624    -190.63832      587.44664     -10.924183     -1003.1271     -517.93181      510.82523
     24500   24500         -103.60168      5589.589       0.80346514     296.76236      173.58584      216.5594      -311.40242     -0.72242198    -201.28078      593.81597     -11.502637     -1003.0191     -532.46357      494.48706
     25000   25000         -842.43254      5763.4462      0.77922821     289.09827      164.72105      241.92425     -313.43464     -0.8712119     -191.00336      601.11432     -11.155654     -1003.3427     -500.89227      481.71658
     25500   25500         -2512.792       5826.8152      0.77075378     293.57172      166.99413      234.0628      -321.40241     -0.33058985    -191.25515      578.38943     -11.034332     -1003.2416     -536.78344      489.17057
     26000   26000          1522.0012      5600.0543      0.80196363     304.51233      153.96945      232.12489     -331.77103     -0.77280829    -185.55326      571.69554     -11.481141     -1003.0524     -563.35959      507.40062
     26500   26500          375.57484      5875.9446      0.76430943     317.0265       169.45616      221.89916     -326.82303     -0.44981212    -206.88652      594.46527     -10.942073     -1002.0692     -550.408        528.25264
     27000   27000          1942.2303      5901.8689      0.76095215     305.26664      161.84721      224.94297     -327.26428     -0.66454277    -187.27966      574.99635     -10.894009     -1003.1361     -556.55807      508.6575
     27500   27500          454.6698       5632.3276      0.79736837     302.86915      179.19886      232.10063     -325.74188     -0.63970528    -187.71058      566.88431     -11.415354     -1003.7519     -539.66023      504.66263
     28000   28000         -342.00962      5627.3036      0.79808025     297.57072      167.13339      231.01312     -332.36794     -0.78071143    -175.90903      547.4554      -11.425545     -1002.5364     -565.9922       495.834
     28500   28500          1189.6971      5748.8135      0.78121161     291.46824      175.14692      239.78256     -330.59272     -0.64690052    -178.89023      577.75495     -11.184049     -1002.5189     -519.96432      485.6656
     29000   29000         -1250.694       5830.948       0.7702075      305.76088      169.06711      249.44953     -324.00225     -0.77437536    -173.97987      548.40469     -11.026511     -1003.1787     -535.01391      509.48105
     29500   29500          3703.6271      5653.4151      0.79439414     296.00953      166.87841      235.20869     -323.80296     -0.35529807    -186.59626      567.94445     -11.372774     -1002.6402     -543.36315      493.23264
     30000   30000         -1843.3576      5658.3062      0.79370746     300.03762      168.21451      242.25856     -326.69828     -0.54946504    -190.42497      563.78278     -11.362943     -1002.1201     -545.537        499.94453
     30500   30500          1724.4228      5699.1652      0.78801714     310.21361      166.22221      227.9841      -314.31851     -0.38492903    -184.40088      554.78983     -11.281479     -1003.7077     -553.81588      516.9005
     31000   31000         -2786.087       5833.7274      0.76984054     302.06087      160.15749      224.04419     -323.76996     -0.60432342    -187.20691      577.37415     -11.021258     -1002.8928     -552.89822      503.31582
     31500   31500          722.54585      5768.7105      0.77851712     295.17343      142.51074      221.50377     -322.24487     -0.017272166   -184.06486      577.12877     -11.145474     -1003.5632     -568.74694      491.83945
     32000   32000         -2330.8081      5768.4266      0.77855543     266.54969      151.23547      229.16819     -332.78997     -0.53248644    -189.81549      558.27616     -11.146022     -1001.7483     -586.20643      444.1445
     32500   32500          75.21886       5848.1117      0.767947       301.12157      158.46814      250.61654     -327.10179     -0.10430609    -192.03889      584.17642     -10.994149     -1003.4811     -529.46503      501.75068
     33000   33000          4465.5189      5627.4017      0.79806634     313.09587      174.15903      244.50139     -322.98812     -0.30788366    -179.07827      540.43538     -11.425346     -1003.949      -547.22748      521.70314
     33500   33500          334.73806      5538.2638      0.81091116     296.84407      163.40728      234.25992     -329.66376     -0.59040985    -204.25206      580.40464     -11.609236     -1003.7753     -560.20974      494.62321
     34000   34000          1237.4313      5576.4188      0.80536273     297.21087      178.06453      221.28686     -331.75846     -0.34515066    -170.88585      542.09746     -11.529803     -1003.2388     -564.77939      495.2344
     34500   34500         -845.97372      5399.5725      0.83173989     292.99299      160.89059      218.14541     -319.04931     -0.55402699    -200.15388      565.79644     -11.907426     -1003.6773     -578.60206      488.20625
     35000   35000         -3676.4062      5773.4782      0.77787422     290.03038      167.11927      248.11108     -330.62481     -0.36517597    -191.64439      571.00116     -11.13627      -1004.0306     -540.43344      483.26974
     35500   35500         -128.93128      5664.0864      0.79289749     311.74434      166.31648      217.22726     -318.93721     -0.53337907    -189.97547      565.06988     -11.351347     -1002.3957     -563.22813      519.45111
     36000   36000          2039.736       5560.9374      0.80760483     310.05082      158.56535      235.12731     -318.2812      -0.55433036    -199.46277      557.64424     -11.561902     -1003.5337     -570.49508      516.62925
     36500   36500          670.80224      5677.7487      0.79098955     293.50483      147.17717      215.35326     -312.22345     -0.4977736     -186.88997      565.25835     -11.324033     -1002.8783     -574.70068      489.05912
     37000   37000         -1213.916       5637.7607      0.79659994     298.64044      147.20653      235.06467     -316.80469     -0.69063375    -175.84244      551.38523     -11.404353     -1003.2707     -562.95204      497.61645
     37500   37500         -1065.0748      5475.9861      0.82013355     290.58279      159.02698      206.87721     -318.155       -0.33844698    -193.80881      576.43164     -11.741267     -1003.2194     -573.18583      484.19021
     38000   38000          6206.2119      5684.2234      0.79008855     278.93739      167.02249      230.4514      -311.53104     -0.47650246    -182.48617      572.9268      -11.311134     -1003.0699     -527.16293      464.78578
     38500   38500         -3659.7161      5671.0198      0.79192809     301.38714      178.64843      249.35854     -319.44425     -0.22879265    -187.85166      559.99421     -11.337469     -1003.446      -522.96953      502.1932
     39000   39000         -3280.5621      5774.2382      0.77777183     301.82239      179.7759       220.69573     -325.74301     -0.60770457    -184.03086      549.36913     -11.134804     -1003.6466     -564.18744      502.91845
     39500   39500         -588.30703      5966.0425      0.75276699     279.54199      153.58847      241.57117     -329.44622     -0.63023277    -169.29138      568.64824     -10.776828     -1003.2719     -538.83188      465.79322
     40000   40000          5030.699       5621.4083      0.79891721     296.72575      171.48703      237.4069      -322.92475     -0.030629828   -184.30023      567.68906     -11.437527     -1003.3657     -534.03833      494.42606
     40500   40500          44.445931      5716.6253      0.78561033     314.62449      159.57167      244.11358     -325.54081     -0.33054401    -185.44501      575.75796     -11.247022     -1003.2232     -535.09632      524.25023
     41000   41000         -1316.8079      5610.8313      0.80042325     301.96476      152.54128      240.5385      -330.59889     -0.59514839    -201.21257      580.515       -11.459088     -1003.2459     -562.05773      503.15566
     41500   41500         -2387.525       5672.8544      0.79167198     310.908        171.71499      220.63783     -321.262       -0.76509909    -188.00471      562.77416     -11.333803     -1003.9728     -558.87758      518.05755
     42000   42000         -1666.1557      5794.3105      0.77507753     310.54333      166.91742      229.62223     -321.72869      0.043825677   -172.95064      562.05337     -11.096232     -1003.5033     -539.54581      517.44992
     42500   42500          1551.4749      5652.646       0.79450223     303.77019      169.70756      240.01559     -329.19547     -0.25617388    -182.77315      560.74658     -11.374321     -1003.2225     -544.97756      506.16402
     43000   43000         -1238.9052      5745.7724      0.78162509     293.70472      159.01341      242.74125     -326.59703     -0.48724801    -200.94576      590.21277     -11.189969     -1003.1672     -539.22984      489.39219
     43500   43500         -2211.3438      5748.1239      0.78130534     299.3795       162.41736      226.98838     -325.00045     -0.551703      -193.06402      571.33037     -11.185391     -1002.5687     -560.44879      498.84792
     44000   44000         -151.46063      5796.1809      0.77482741     288.77484      164.01651      223.27309     -334.86309      0.13692875    -199.587        599.05454     -11.092651     -1003.0655     -551.0345       481.17766
     44500   44500          788.88918      5880.694       0.76369215     302.91315      163.09179      201.64618     -331.03437     -0.5670776     -176.25603      558.50004     -10.933235     -1003.227      -587.84644      504.73595
     45000   45000         -3517.6461      5902.6806      0.76084751     296.37232      159.43464      215.7632      -317.9068      -0.23423722    -180.16929      564.21911     -10.892511     -1002.2031     -561.09649      493.83713
     45500   45500          1063.2529      5763.3993      0.77923455     296.61543      162.1866       240.70928     -319.89893     -0.63639948    -204.54927      593.89641     -11.155745     -1003.6568     -531.94916      494.24224
     46000   46000         -2578.5377      5796.7486      0.77475153     310.13069      160.62537      240.65273     -327.44473     -0.56375684    -196.85009      588.73167     -11.091565     -1003.4801     -538.3289       516.76234
     46500   46500         -889.21812      5692.3101      0.78896613     310.37996      156.23367      234.25883     -326.62355     -0.93771601    -193.67176      563.41562     -11.295065     -1004.0121     -571.33703      517.17769
     47000   47000          2051.8419      5842.947       0.76862581     304.16219      169.8216       220.61997     -320.38532     -0.50467397    -174.31171      553.7692      -11.003867     -1003.9909     -554.98183      506.8172
     47500   47500         -2142.4099      5857.3273      0.76673876     293.9911       177.10805      236.70303     -320.38728     -0.44882156    -180.75904      557.80258     -10.976852     -1003.5946     -533.5761       489.86937
     48000   48000          1913.8981      5677.2995      0.79105213     297.52627      158.02494      245.68508     -324.39209     -0.60225603    -175.27006      554.63702     -11.324929     -1003.7385     -545.65583      495.75993
     48500   48500         -3186.4726      5598.7325      0.80215296     311.01984      180.2382       223.76334     -322.56703     -0.45243436    -194.09562      565.44723     -11.483851     -1003.6322     -551.29852      518.2439
     49000   49000          71.566503      5913.3817      0.75947065     301.87302      163.40301      230.1859      -319.79736     -0.55426818    -175.46764      564.44003     -10.872799     -1003.2818     -541.07215      503.00281
     49500   49500         -2884.0172      5671.0223      0.79192774     293.89672      166.6471       231.19932     -325.33486     -0.35025085    -185.53735      557.10851     -11.337464     -1003.3305     -559.59803      489.71211
     50000   50000          1265.4402      5711.7616      0.78627929     327.13036      165.58143      236.82083     -316.03911     -0.33503353    -179.76718      553.13087     -11.256599     -1003.1186     -543.72682      545.08843
     50500   50500          2691.5415      5672.2082      0.79176217     311.97424      159.25652      235.7728      -318.09974     -1.0642983     -203.09582      574.56735     -11.335094     -1003.3873     -556.0505       519.8342
     51000   51000          349.94762      5769.5953      0.77839773     305.24517      158.94507      218.07312     -314.66703     -0.68908484    -194.91035      578.25234     -11.143765     -1002.1564     -557.15238      508.62173
     51500   51500          3117.4277      5702.2639      0.78758892     288.54394      155.19996      248.56812     -325.05976     -0.33406401    -172.64631      559.16698     -11.275348     -1002.8481     -537.9532       480.79293
     52000   52000         -1548.1467      5502.2915      0.81621265     289.43684      167.44512      242.48899     -329.60221     -1.1979744     -200.07413      582.35919     -11.685134     -1002.2027     -540.78373      482.28074
     52500   52500          2107.8618      5737.203       0.78279257     297.25539      172.09028      231.41032     -320.64194     -0.62687485    -204.19311      590.13541     -11.206683     -1002.4488     -534.27476      495.30858
     53000   53000          2738.2156      5758.2863      0.77992646     287.46551      174.13471      227.9596      -340.30586     -0.56708512    -189.16739      572.31289     -11.16565      -1003.087      -558.72017      478.99597
     53500   53500         -3133.0226      5895.1385      0.76182092     293.64466      170.41393      234.33929     -325.62425     -0.78535885    -177.27116      562.29086     -10.906446     -1002.5868     -539.22348      489.29211
     54000   54000          1772.4539      5509.3049      0.81517359     296.59414      166.2899       217.19117     -328.17511     -1.0817789     -196.66324      556.84314     -11.670258     -1002.5152     -588.11109      494.20676
     54500   54500          907.1709       5474.455       0.82036292     295.91107      149.9359       235.32404     -323.39346     -0.34547353    -202.50638      568.6654      -11.74455      -1003.1873     -575.50726      493.06857
     55000   55000         -3081.1901      5539.0404      0.81079745     305.37808      170.11452      236.56485     -332.11018     -0.4052251     -206.85187      583.89006     -11.607608     -1002.8581     -551.65589      508.84319
     55500   55500         -949.83098      5645.1769      0.79555343     321.84053      163.33144      250.65218     -326.8022      -0.39821708    -192.81649      577.36448     -11.389371     -1002.9239     -531.59272      536.27413
     56000   56000          447.32648      5706.9582      0.78694109     306.40554      177.33542      225.80892     -315.21305     -0.56983768    -188.94122      556.96391     -11.266074     -1002.1928     -546.80863      510.55522
     56500   56500          539.31752      5451.4058      0.82383151     310.76729      158.08367      233.73388     -325.96247     -0.40804793    -195.37912      569.43477     -11.794208     -1003.0991     -563.59647      517.82309
     57000   57000         -5210.5254      5709.5113      0.78658919     286.69147      171.64057      234.21426     -333.60346     -0.52109356    -194.12766      589.47485     -11.261036     -1003.291      -536.21349      477.70621
     57500   57500         -804.42708      5629.6252      0.79775113     306.98293      168.39869      220.5164      -347.60335     -0.65605362    -198.65049      572.06239     -11.420834     -1004.3617     -590.29415      511.51731
     58000   58000         -2504.4169      5837.2651      0.76937398     285.47799      177.14415      226.62307     -342.20805     -0.48043267    -199.96563      576.30317     -11.014578     -1003.0682     -565.65194      475.68422
     58500   58500         -4517.1893      5609.4711      0.80061735     288.42895      168.90113      199.5091      -318.35993     -0.49825671    -197.64012      569.99367     -11.461867     -1003.8408     -581.93519      480.60132
     59000   59000         -440.07539      5537.6953      0.81099439     300.46204      157.52806      242.12418     -332.60758     -0.40740502    -191.18076      578.79049     -11.610428     -1003.095      -548.84804      500.65172
     59500   59500          6131.2608      5759.9644      0.77969924     305.91575      163.3354       236.64228     -337.46092     -0.60903749    -178.09308      564.0305      -11.162397     -1003.0336     -555.18845      509.7391
     60000   60000         -1504.3944      5699.6214      0.78795407     300.55069      163.14102      232.24012     -326.43396     -0.64680283    -188.46494      577.99749     -11.280576     -1003.9799     -546.14693      500.79944
     60500   60500         -1024.8266      5563.6313      0.80721378     296.79653      159.58006      223.11977     -318.29543     -0.63892571    -202.40302      574.4489      -11.556303     -1003.1483     -567.33697      494.54398
     61000   61000          604.84533      5588.1213      0.80367617     293.42622      175.88693      233.33944     -321.25357     -0.7866249     -188.16264      567.29598     -11.505658     -1003.3224     -537.00286      488.92813
     61500   61500         -154.57984      5604.6656      0.80130381     321.63083      163.85912      252.74727     -322.95344      0.48594548    -204.10346      593.96762     -11.471695     -1003.6829     -519.67985      535.92471
     62000   62000         -1179.8671      5703.7593      0.78738243     301.5306       178.31617      203.01953     -322.93415     -0.40789887    -197.01066      589.57888     -11.272392     -1003.0444     -552.48256      502.43224
     62500   62500         -1800.1213      5812.4917      0.77265313     287.4654       167.10305      217.06667     -310.73423      0.019688597   -177.72881      557.99171     -11.061523     -1003.2445     -549.52645      478.99578
     63000   63000         -3812.7808      5656.1984      0.79400324     280.07736      168.7689       228.0293      -330.24597     -0.80393828    -179.04793      566.10591     -11.367178     -1003.2888     -550.48257      466.6853
     63500   63500          2224.6961      5602.0541      0.80167734     276.7125       167.77216      206.36517     -320.01356     -0.2463614     -188.54064      568.58436     -11.477042     -1003.0914     -569.17023      461.07851
     64000   64000          3038.6798      5748.7098      0.7812257      296.39644      170.32668      239.26041     -320.07501     -0.6325932     -181.78986      566.82866     -11.184251     -1003.1915     -529.27322      493.87734
     64500   64500          406.89341      5490.2638      0.81800075     317.57972      161.52675      243.79056     -330.48178     -0.62189559    -182.6593       547.56074     -11.710733     -1003.8389     -564.72386      529.17445
     65000   65000         -2167.5503      5485.1649      0.81876113     295.93238      162.81117      229.50697     -325.93418     -0.93421821    -197.69815      574.79068     -11.721619     -1003.1191     -560.57682      493.10408
     65500   65500         -1515.8588      5599.4476      0.80205052     313.48634      158.95932      225.91907     -329.60502     -0.68184452    -198.06495      566.00984     -11.482385     -1004.819      -582.28258      522.35377
     66000   66000          1053.0092      5754.648       0.78041956     285.21142      170.29749      203.62704     -316.91263     -0.57838576    -186.88972      576.38183     -11.17271      -1003.442      -557.51637      475.24003
     66500   66500         -3821.2382      5674.0783      0.79150121     298.17039      178.15505      227.89339     -328.73088      0.037340803   -166.30909      538.55651     -11.331358     -1004.3956     -554.79326      496.83322
     67000   67000         -227.52147      5559.7696      0.80777446     293.68569      158.01634      234.36809     -316.73583     -0.39742635    -204.80166      574.58347     -11.56433      -1003.68       -558.64698      489.36048
     67500   67500         -4730.3898      5592.7028      0.80301779     302.40482      178.78628      229.88936     -321.5844      -0.36631713    -195.21091      562.99612     -11.496232     -1004.0656     -549.55548      503.88893
     68000   68000          1064.7942      5668.4198      0.79229134     290.9467       181.17034      255.46485     -318.12809     -1.2343426     -184.87976      569.43387     -11.34267      -1003.6127     -501.78585      484.79659
     68500   68500         -1911.5793      5665.5214      0.79269666     303.97419      162.86482      223.22475     -323.7539      -0.27738088    -216.81423      580.71096     -11.348472     -1003.4989     -577.54391      506.50393
     69000   69000         -1243.1685      5586.1485      0.80395998     300.97344      169.74361      240.98044     -326.33372     -0.092570135   -210.81394      579.36116     -11.509721     -1003.2203     -550.37528      501.50387
     69500   69500          1908.4917      5732.5493      0.78342804     293.28349      158.13367      221.82374     -327.01151     -0.86055081    -193.86418      576.75526     -11.21578      -1003.0252     -568.04881      488.6903
     70000   70000         -994.40264      5779.2853      0.77709261     297.96319      148.42518      231.75915     -329.47399     -0.35640136    -177.67015      553.0556      -11.12508      -1003.2289     -577.48951      496.48797
     70500   70500         -2090.3701      5805.2418      0.77361806     283.03631      161.05938      244.06823     -322.70798     -0.39200887    -182.33876      576.68993     -11.075338     -1002.8467     -526.46786      471.61571
     71000   71000         -1588.1901      5931.9551      0.75709269     310.9157       150.81583      221.36191     -322.8172      -0.21353869    -198.57598      574.6326      -10.838756     -1003.4871     -578.28354      518.07038
     71500   71500          2446.1798      5876.2635      0.76426796     297.27699      166.4913       238.36567     -316.96009     -0.47832347    -160.30022      548.50176     -10.941479     -1003.7105     -528.09044      495.34456
     72000   72000         -579.47081      6075.5026      0.73920467     287.27095      158.84876      235.16115     -319.79082     -0.2586525     -178.70121      566.21315     -10.582666     -1003.7104     -542.23803      478.67177
     72500   72500          4082.1106      5742.0933      0.78212589     285.64571      159.60773      214.86144     -328.26788     -0.69506512    -180.21591      571.55574     -11.197138     -1002.0309     -565.18487      475.96369
     73000   73000         -2030.5636      5915.7256      0.75916973     301.95127      161.18646      238.3092      -323.86427     -0.16004274    -172.4034       564.87645     -10.868491     -1003.4125     -535.46814      503.1332
     73500   73500         -542.05037      5771.7151      0.77811184     314.85797      161.15549      221.54581     -314.27163     -0.24245354    -182.80002      564.385       -11.139672     -1002.9842     -553.21204      524.63928
     74000   74000         -524.53018      5685.1644      0.78995779     305.53364      156.03692      221.19855     -330.55178     -0.1751191     -212.15959      606.86176     -11.309262     -1002.606      -561.39521      509.10241
     74500   74500         -2993.2272      5469.9765      0.82103458     285.71109      173.33923      237.71581     -310.6584      -0.33785332    -193.01877      553.05282     -11.754166     -1002.415      -542.32214      476.07262
     75000   75000          1811.3404      5439.5451      0.82562784     283.86764      159.58014      208.44293     -320.82318     -0.37557329    -193.13037      564.8501      -11.819925     -1002.9985     -584.45442      473.00094
     75500   75500         -2117.7349      5659.9103      0.79348251     295.01679      182.12096      233.77761     -333.45259     -0.38186435    -204.55366      594.21144     -11.359723     -1003.4322     -531.71033      491.57847
     76000   76000          74.982098      5722.3586      0.78482321     313.30007      179.46219      212.57996     -323.88569     -0.37652385    -186.0716       555.52399     -11.235754     -1003.7091     -566.47682      522.04339
     76500   76500         -1314.0092      6004.247       0.7479772      296.24441      168.31516      215.08114     -317.96927     -0.71452568    -169.19234      559.08179     -10.708256     -1003.2142     -548.61224      493.62401
     77000   77000         -1230.8141      5778.7994      0.77715794     298.34521      169.59655      234.32306     -327.08159     -1.0209646     -174.96142      562.14905     -11.126016     -1002.1568     -539.15217      497.12451
     77500   77500         -3552.9643      5475.0692      0.82027089     312.48992      180.09704      238.3363      -327.48417     -0.06704623    -206.36204      580.68279     -11.743233     -1003.2802     -538.07737      520.69346
     78000   78000         -269.16373      5580.3622      0.80479361     318.50469      180.12257      232.92915     -327.10385     -0.48799678    -185.60586      556.84742     -11.521656     -1003.4893     -546.78783      530.71571
     78500   78500          4741.3842      5767.3602      0.77869939     302.81916      179.59526      224.30134     -321.87993     -0.071325883   -173.43983      560.74138     -11.148083     -1002.9561     -533.70917      504.57934
     79000   79000         -239.83126      5450.6323      0.82394842     309.90195      161.09235      241.49839     -318.48214     -0.4672692     -196.65253      545.67625     -11.795881     -1002.2527     -569.5877       516.3812
     79500   79500         -4660.8193      5467.8246      0.82135771     306.21321      175.68941      233.84005     -328.95436     -1.013462      -200.49801      552.39164     -11.758792     -1003.4499     -571.99459      510.23475
     80000   80000          2691.8652      5443.7081      0.82499644     287.26202      165.50179      233.42276     -330.71893     -0.65548494    -185.33244      551.39274     -11.810885     -1003.176      -569.56561      478.65689
     80500   80500          174.98133      5573.7954      0.80574179     296.28515      158.97734      245.96599     -336.73832     -0.66796386    -200.85958      564.7933      -11.53523      -1002.9153     -571.44458      493.69188
     81000   81000         -2501.157       5756.7893      0.78012927     308.40728      180.02293      262.13774     -335.41144     -1.3984876     -173.40833      559.50117     -11.168554     -1002.0734     -510.62984      513.89067
     81500   81500          3697.9436      5557.1515      0.80815502     287.10125      174.10569      231.59939     -328.70168     -0.3222432     -179.53699      550.80904     -11.569779     -1003.0787     -555.12551      478.38901
     82000   82000         -389.4414       5452.3701      0.8236858      293.35727      168.70749      227.46424     -337.46024     -0.5473432     -195.43634      558.47335     -11.792122     -1002.5386     -581.33743      488.81325
     82500   82500          594.83186      5449.2318      0.82416018     322.41896      155.94501      254.92925     -331.43522     -0.79221037    -221.08248      574.88685     -11.798913     -1003.3435     -570.89226      537.23795
     83000   83000          1477.7861      5543.4619      0.81015076     309.98804      186.24342      233.03158     -317.03132     -0.97889227    -198.80729      571.61447     -11.59835      -1003.5969     -529.52494      516.52464
     83500   83500          1330.525       5517.2993      0.81399243     302.72018      155.62198      246.72932     -317.17381     -1.2746991     -199.6387       576.5234      -11.653349     -1003.9337     -543.14621      504.41441
     84000   84000         -1629.4096      5441.248       0.82536944     303.63697      170.80966      232.74136     -315.88788     -0.85790442    -199.32973      554.98967     -11.816225     -1002.7254     -560.26018      505.94202
     84500   84500         -1018.0178      5443.3738      0.82504712     297.09925      168.44559      224.39206     -316.49921     -1.2861854     -218.9814       593.33418     -11.811611     -1002.8802     -553.47519      495.0484
     85000   85000          1669.0191      5635.0029      0.79698981     291.77901      157.16999      240.82733     -322.04128     -0.72308648    -204.71856      572.76925     -11.409934     -1003.5273     -560.24367      486.18343
     85500   85500          826.33988      5575.542       0.80548938     300.80741      153.45404      222.89027     -323.60178      0.028796038   -198.16224      559.05011     -11.531616     -1003.5908     -589.93157      501.22721
     86000   86000          1959.5971      5733.9228      0.78324037     301.74941      170.57311      215.79327     -330.5238      -0.67665603    -196.72569      593.69489     -11.213093     -1003.3049     -551.16982      502.79684
     86500   86500          512.29561      5947.7215      0.75508576     303.76582      158.30431      234.62942     -318.32686     -0.53654918    -187.44341      592.13914     -10.810024     -1003.4606     -524.69458      506.15673
     87000   87000         -1214.9977      5821.2782      0.7714869      301.3306       170.4085       214.84279     -325.67252     -0.18632595    -176.10828      561.95617     -11.044827     -1003.6166     -558.37626      502.09898
     87500   87500          2357.7488      5711.0632      0.78637544     285.36225      164.96979      218.67924     -326.48248     -0.94700965    -183.60901      582.24806     -11.257976     -1002.9721     -548.1135       475.49137
     88000   88000          4100.6515      5689.8523      0.78930693     298.16622      168.8174       212.33872     -323.90015     -0.58766576    -178.33971      578.95734     -11.299944     -1002.5159     -545.22992      496.82627
     88500   88500          2193.5289      5731.8179      0.783528       301.6732       161.95633      221.53147     -333.80276     -0.40595141    -182.04348      570.93573     -11.217211     -1003.6424     -565.47107      502.66986
     89000   89000         -2419.4874      5716.6235      0.78561058     286.82503      171.6341       214.89981     -327.7979      -0.83560067    -190.86165      568.14337     -11.247026     -1003.5299     -568.34775      477.92875
     89500   89500         -2096.0399      5951.745       0.75457531     289.60866      170.94804      208.17668     -329.52353     -0.75799626    -192.20181      580.79358     -10.802716     -1003.546      -566.11105      482.56703
     90000   90000          205.51845      5811.4898      0.77278633     281.66088      152.91549      239.35238     -317.69161     -0.87522164    -194.02785      587.89347     -11.06343      -1002.9645     -535.39785      469.32387
     90500   90500          2010.7696      5535.6215      0.81129822     302.45216      155.63061      216.08716     -325.28431     -0.10385247    -201.1765       581.41475     -11.614778     -1002.965      -576.39712      503.96782
     91000   91000         -2366.5441      5863.4695      0.76593557     278.88638      151.21214      213.50672     -323.55559     -0.30628562    -196.87264      579.96458     -10.965353     -1002.8629     -578.91399      464.70079
     91500   91500         -110.30787      5739.897       0.78242517     292.18831      164.18443      238.77579     -323.60889     -0.43645161    -199.96213      598.71664     -11.201423     -1003.8316     -526.16222      486.86545
     92000   92000         -2121.5751      5857.3668      0.76673359     283.14033      166.77156      225.67846     -324.89905     -0.32117013    -193.75876      579.2121      -10.976777     -1003.6358     -550.95263      471.78903
     92500   92500          1129.514       5669.773       0.79210224     299.03256      156.73563      222.30817     -322.38102     -0.97474439    -175.16125      553.81325     -11.339962     -1003.1409     -568.80083      498.26983
     93000   93000          472.53026      5881.771       0.76355232     292.18468      155.76014      248.87448     -333.07799     -1.0756817     -184.32273      594.48619     -10.931234     -1003.6657     -523.02132      486.85938
     93500   93500          1302.0369      5811.5967      0.77277211     296.65255      168.94595      245.66755     -330.17976     -0.55186786    -172.91103      561.10342     -11.063227     -1002.6481     -530.57382      494.30407
     94000   94000          5929.0926      5737.0063      0.78281941     290.14262      156.50708      231.74462     -340.59303     -0.2301535     -191.60817      567.84678     -11.207067     -1002.5511     -578.88399      483.45675
     94500   94500         -1233.2024      5742.2829      0.78210007     289.77085      160.3255       214.50406     -329.43893     -0.55411231    -188.01336      593.25334     -11.196768     -1003.4021     -553.32557      482.8373
     95000   95000         -3531.1036      5679.9167      0.79068763     304.17487      162.79446      247.33256     -321.09512     -0.66068233    -178.38042      558.77453     -11.31971      -1003.5344     -534.76911      506.83832
     95500   95500          1234.6674      5513.4165      0.81456568     299.31066      161.01692      227.52244     -330.96276     -0.35833233    -192.00547      572.98132     -11.661555     -1003.8392     -565.6451       498.73322
     96000   96000         -2053.6426      5628.6601      0.79788791     309.84165      174.96503      224.58999     -326.36009     -0.40962312    -192.62151      571.04958     -11.422792     -1003.6656     -552.4522       516.28071
     96500   96500         -1774.132       5720.1341      0.78512842     302.58779      184.20877      211.40047     -318.38742     -0.81882803    -189.51643      576.41653     -11.240123     -1003.6079     -540.30475      504.19381
     97000   97000         -1790.7457      5528.8384      0.81229357     318.13522      172.14518      234.80344     -326.6476      -0.37083189    -183.61862      568.7151      -11.629027     -1003.3574     -538.33074      530.10008
     97500   97500         -1029.3649      5782.3621      0.77667911     271.90006      160.27897      214.66336     -326.96601     -0.74898838    -181.85385      563.32261     -11.11916      -1002.9717     -574.27559      453.05969
     98000   98000          207.14031      5890.7646      0.76238658     292.95297      172.89459      222.59307     -320.25305     -0.36421528    -196.4386       598.44586     -10.914544     -1003.8906     -527.01295      488.13956
     98500   98500         -1443.4314      5720.3955      0.78509254     299.79176      156.7083       211.33305     -329.30835     -0.6452419     -199.4191       587.27784     -11.23961      -1002.861      -576.91446      499.53486
     99000   99000          844.58408      5724.6295      0.78451188     292.53229      170.86853      222.34535     -322.21812     -0.61229298    -182.50168      558.94834     -11.231297     -1003.216      -556.38587      487.4386
     99500   99500          1010.6954      5675.8163      0.79125885     286.04228      174.08702      233.68694     -316.35196     -0.54719515    -181.69576      566.13001     -11.327888     -1003.1868     -527.87772      476.62447
    100000   100000         3071.6531      5534.6524      0.81144028     309.11105      171.44277      216.07531     -321.74465     -0.48360126    -191.35077      567.58567     -11.616811     -1003.7463     -562.22155      515.06334
Loop time of 690.878 on 6 procs for 100000 steps with 560 atoms

Performance: 12.506 ns/day, 1.919 hours/ns, 144.743 timesteps/s, 81.056 katom-step/s
228.0% CPU use with 1 MPI tasks x 6 OpenMP threads

MPI task timing breakdown:
Section |  min time  |  avg time  |  max time  |%varavg| %total
---------------------------------------------------------------
Pair    | 542.27     | 542.27     | 542.27     |   0.0 | 78.49
Bond    | 50.012     | 50.012     | 50.012     |   0.0 |  7.24
Kspace  | 48.245     | 48.245     | 48.245     |   0.0 |  6.98
Neigh   | 28.522     | 28.522     | 28.522     |   0.0 |  4.13
Comm    | 4.9154     | 4.9154     | 4.9154     |   0.0 |  0.71
Output  | 0.047323   | 0.047323   | 0.047323   |   0.0 |  0.01
Modify  | 15.856     | 15.856     | 15.856     |   0.0 |  2.30
Other   |            | 1.01       |            |       |  0.15

Nlocal:            560 ave         560 max         560 min
Histogram: 1 0 0 0 0 0 0 0 0 0
Nghost:           9779 ave        9779 max        9779 min
Histogram: 1 0 0 0 0 0 0 0 0 0
Neighs:         360658 ave      360658 max      360658 min
Histogram: 1 0 0 0 0 0 0 0 0 0

Total # of neighbors = 360658
Ave neighs/atom = 644.03214
Ave special neighs/atom = 4.9642857
Neighbor list builds = 1906
Dangerous builds = 0
undump                  trj
unfix                   trjE

unfix                   1
unfix                   Dens
unfix                   DensAve

write_data      NPT.dat
System init for write_data ...
PPPM initialization ...
  using 12-bit tables for long-range coulomb (src/kspace.cpp:342)
  G vector (1/distance) = 0.23840184
  grid = 9 9 9
  stencil order = 5
  estimated absolute RMS force accuracy = 0.0019477381
  estimated relative force accuracy = 5.8655556e-06
  using double precision FFTW3
  3d grid and FFT values/proc = 4096 729
Generated 0 of 15 mixed pair_coeff terms from sixthpower/geometric mixing rule
WARNING: Not all mixed pair coeffs generated from mixing. Use write_data with 'pair ij' option to store all pair coeffs. (src/write_data.cpp:364)


log             1.2_NVT.out
#-------------------------------------------------------------------------------
# Stage 1.2: NVT integration for 100000 steps with a timestep of 1.0 fs
#             Temperature 298.15 K
#-------------------------------------------------------------------------------
variable               temd   equal 100000
variable               Ne     equal  10
variable               Nr_rdf equal 0.5*${temd}/${Ne}
variable               Nr_rdf equal 0.5*100000/${Ne}
variable               Nr_rdf equal 0.5*100000/10
reset_timestep          500
thermo_style            custom step v_time press vol v_sysdensity temp ebond eangle edihed eimp evdwl ecoul etail pe ke
thermo                  ${Nthermo}
thermo                  0
fix                     1 all nve
fix                     2 all temp/rescale 10 298.15 298.15 20 1.0
fix                     3 all ave/time 1 99 1000 v_time c_thermo_temp c_thermo_press v_sysvol v_sysdensity v_etotal v_pe v_ke v_evdwl v_coulomb v_sxx v_syy v_szz v_syz v_sxz v_sxy file 1.2_averages.txt
fix                     4 all ave/time 100  1 1000 v_time  c_thermo_temp c_thermo_press v_sysvol v_sysdensity v_etotal v_pe v_ke v_evdwl v_coulomb v_sxx v_syy v_szz v_syz v_sxz v_sxy file 1.2_instantaneous.txt


# RDF COM

#RDF etanol-etanol
compute         rdfc_nvt all rdf 500  1  1
fix         5 all ave/time ${Ne} ${Nr_rdf} ${temd} c_rdfc_nvt[*] file rdf_com1.rdf mode vector
fix         5 all ave/time 10 ${Nr_rdf} ${temd} c_rdfc_nvt[*] file rdf_com1.rdf mode vector
fix         5 all ave/time 10 5000 ${temd} c_rdfc_nvt[*] file rdf_com1.rdf mode vector
fix         5 all ave/time 10 5000 100000 c_rdfc_nvt[*] file rdf_com1.rdf mode vector

#RDF etanol-hexano
compute         rdfc2_nvt all rdf 500 1  2
fix         6 all ave/time ${Ne} ${Nr_rdf} ${temd} c_rdfc2_nvt[*] file rdf_com2.rdf mode vector
fix         6 all ave/time 10 ${Nr_rdf} ${temd} c_rdfc2_nvt[*] file rdf_com2.rdf mode vector
fix         6 all ave/time 10 5000 ${temd} c_rdfc2_nvt[*] file rdf_com2.rdf mode vector
fix         6 all ave/time 10 5000 100000 c_rdfc2_nvt[*] file rdf_com2.rdf mode vector

#RDF hexano-hexano
compute         rdfc3_nvt all rdf 500  2  2
fix         7 all ave/time ${Ne} ${Nr_rdf} ${temd} c_rdfc3_nvt[*] file rdf_com3.rdf mode vector
fix         7 all ave/time 10 ${Nr_rdf} ${temd} c_rdfc3_nvt[*] file rdf_com3.rdf mode vector
fix         7 all ave/time 10 5000 ${temd} c_rdfc3_nvt[*] file rdf_com3.rdf mode vector
fix         7 all ave/time 10 5000 100000 c_rdfc3_nvt[*] file rdf_com3.rdf mode vector


# RDF O-H···O
compute         rdfc4_nvt all rdf 1000 5 6
fix         8 all ave/time ${Ne} ${Nr_rdf} ${temd} c_rdfc4_nvt[*] file rdf_c4oh.rdf mode vector
fix         8 all ave/time 10 ${Nr_rdf} ${temd} c_rdfc4_nvt[*] file rdf_c4oh.rdf mode vector
fix         8 all ave/time 10 5000 ${temd} c_rdfc4_nvt[*] file rdf_c4oh.rdf mode vector
fix         8 all ave/time 10 5000 100000 c_rdfc4_nvt[*] file rdf_c4oh.rdf mode vector

# RDF H-O···H-C
compute         rdfc5_nvt all rdf 1000 6 4
fix         9 all ave/time ${Ne} ${Nr_rdf} ${temd} c_rdfc5_nvt[*] file rdf_c5ho.rdf mode vector
fix         9 all ave/time 10 ${Nr_rdf} ${temd} c_rdfc5_nvt[*] file rdf_c5ho.rdf mode vector
fix         9 all ave/time 10 5000 ${temd} c_rdfc5_nvt[*] file rdf_c5ho.rdf mode vector
fix         9 all ave/time 10 5000 100000 c_rdfc5_nvt[*] file rdf_c5ho.rdf mode vector

thermo       500
dump                   movieemd all custom 200 movieEMD.lammps id mol type x y z
timestep                1.0
run                     ${temd}
run                     100000
PPPM initialization ...
  using 12-bit tables for long-range coulomb (src/kspace.cpp:342)
  G vector (1/distance) = 0.23840184
  grid = 9 9 9
  stencil order = 5
  estimated absolute RMS force accuracy = 0.0019477381
  estimated relative force accuracy = 5.8655556e-06
  using double precision FFTW3
  3d grid and FFT values/proc = 4096 729
Generated 0 of 15 mixed pair_coeff terms from sixthpower/geometric mixing rule
Neighbor list info ...
  update: every = 1 steps, delay = 0 steps, check = yes
  max neighbors/atom: 2000, page size: 100000
  master list distance cutoff = 14.5
  ghost atom cutoff = 14.5
  binsize = 7.25, bins = 3 3 3
  6 neighbor lists, perpetual/occasional/extra = 1 5 0
  (1) pair lj/class2/coul/long, perpetual
      attributes: half, newton on
      pair build: half/multi/newton
      stencil: half/multi/3d
      bin: multi
  (2) compute rdf, occasional, copy from (1)
      attributes: half, newton on
      pair build: copy
      stencil: none
      bin: none
  (3) compute rdf, occasional, copy from (1)
      attributes: half, newton on
      pair build: copy
      stencil: none
      bin: none
  (4) compute rdf, occasional, copy from (1)
      attributes: half, newton on
      pair build: copy
      stencil: none
      bin: none
  (5) compute rdf, occasional, copy from (1)
      attributes: half, newton on
      pair build: copy
      stencil: none
      bin: none
  (6) compute rdf, occasional, copy from (1)
      attributes: half, newton on
      pair build: copy
      stencil: none
      bin: none
Setting up Verlet run ...
  Unit style    : real
  Current step  : 500
  Time step     : 1
WARNING: Inconsistent image flags (src/domain.cpp:1051)
Per MPI rank memory allocation (min/avg/max) = 21.44 | 21.44 | 21.44 Mbytes
   Step         v_time         Press          Volume      v_sysdensity       Temp          E_bond        E_angle        E_dihed        E_impro         E_vdwl         E_coul         E_tail         PotEng         KinEng
       500   500            3071.6858      5534.6524      0.81144028     309.11105      171.44277      216.07531     -321.74465     -0.48360126    -191.35077      577.376       -11.616811     -562.22094      515.06334
      1000   1000          -2944.6357      5534.6524      0.81144028     305.13442      166.2672       235.78478     -329.07929     -0.2168523     -198.54544      581.28324     -11.616811     -556.89575      508.43719
      1500   1500           1722.8867      5534.6524      0.81144028     298.81938      146.09785      238.93075     -334.67055     -0.69805214    -196.78171      580.2561      -11.616811     -579.88749      497.9146
      2000   2000           1657.5566      5534.6524      0.81144028     285.40169      172.89727      226.13639     -329.67181     -0.37944627    -190.93435      575.20163     -11.616811     -558.69211      475.55708
      2500   2500          -926.14728      5534.6524      0.81144028     289.72282      173.26476      224.63387     -319.94705     -0.57328351    -202.49392      606.69363     -11.616811     -531.31851      482.75725
      3000   3000           2117.1333      5534.6524      0.81144028     298.69876      161.44955      234.32363     -314.19677     -1.0491724     -188.02613      577.12243     -11.616811     -543.10942      497.71363
      3500   3500          -1555.536       5534.6524      0.81144028     300.81923      175.35991      219.99323     -329.75182     -0.7483163     -196.75867      596.50011     -11.616811     -546.63596      501.24691
      4000   4000           722.1304       5534.6524      0.81144028     297.3577       155.28678      221.96959     -324.5865      -0.92986726    -181.26507      589.37953     -11.616811     -553.02697      495.47906
      4500   4500           583.25263      5534.6524      0.81144028     303.25552      149.76496      225.47833     -321.99143     -0.54907876    -199.60283      596.14939     -11.616811     -563.02772      505.30642
      5000   5000           1917.1848      5534.6524      0.81144028     301.09168      156.80863      222.4899      -315.86252     -1.1173816     -214.06628      604.8745      -11.616811     -559.86602      501.70088
      5500   5500          -2626.2496      5534.6524      0.81144028     285.38464      184.58378      235.37045     -315.02294     -0.14913817    -202.28939      590.13343     -11.616811     -520.34192      475.52866
      6000   6000           4221.087       5534.6524      0.81144028     307.22914      153.2043       230.20334     -316.69434     -0.71815981    -198.11451      589.058       -11.616811     -555.97934      511.92756
      6500   6500          -2796.0354      5534.6524      0.81144028     301.95046      180.83087      228.82556     -325.97924     -1.2345538     -209.69179      599.92925     -11.616811     -541.0569       503.13184
      7000   7000           1478.4694      5534.6524      0.81144028     305.66463      181.47528      224.40884     -327.33067     -0.35178515    -205.33922      593.39049     -11.616811     -547.23082      509.32066
      7500   7500          -478.06532      5534.6524      0.81144028     298.99336      165.14912      231.52992     -315.0972      -0.69174347    -207.87169      603.59139     -11.616811     -536.02241      498.20451
      8000   8000          -850.4988       5534.6524      0.81144028     280.90347      165.08703      227.03001     -318.30796     -1.1030321     -195.41095      581.43967     -11.616811     -554.59351      468.06182
      8500   8500           2460.683       5534.6524      0.81144028     298.77039      166.88295      238.12536     -322.64116     -0.54884301    -207.51944      591.61801     -11.616811     -547.67432      497.83298
      9000   9000          -298.90014      5534.6524      0.81144028     308.22006      173.266        241.24896     -333.75681     -0.89081886    -194.87346      579.44785     -11.616811     -548.88522      513.57871
      9500   9500           1019.6385      5534.6524      0.81144028     289.66313      163.13956      222.57183     -321.92576     -0.3941971     -210.70171      599.13224     -11.616811     -561.22332      482.6578
     10000   10000         -684.21716      5534.6524      0.81144028     288.77625      177.09751      250.92662     -322.08268     -1.0134546     -199.3967       584.94551     -11.616811     -523.16529      481.18001
     10500   10500          3068.4717      5534.6524      0.81144028     296.66082      168.16896      239.97574     -325.2579      -0.96501686    -176.25441      570.40243     -11.616811     -536.7485       494.31786
     11000   11000          3072.2574      5534.6524      0.81144028     309.47239      171.50639      226.967       -324.18217     -0.30511532    -200.91241      581.53578     -11.616811     -558.17999      515.66543
     11500   11500         -2873.4437      5534.6524      0.81144028     312.90947      167.13873      232.39496     -328.84782     -0.41869701    -200.79598      575.84594     -11.616811     -567.81657      521.39255
     12000   12000          2924.6184      5534.6524      0.81144028     288.7934       164.06592      221.79725     -324.95358     -0.14796164    -198.41361      587.00876     -11.616811     -563.3391       481.2086
     12500   12500         -1385.8956      5534.6524      0.81144028     299.34328      161.06482      238.99185     -323.01265     -0.77724326    -201.8147       599.43245     -11.616811     -539.06573      498.78757
     13000   13000          2572.9048      5534.6524      0.81144028     294.30433      171.97505      236.11297     -315.47922     -0.49499418    -193.21033      584.29637     -11.616811     -530.17744      490.3913
     13500   13500          346.81506      5534.6524      0.81144028     286.61984      164.58326      227.27987     -325.35911     -0.099060417   -183.85318      573.00856     -11.616811     -557.66908      477.58685
     14000   14000         -2453.8614      5534.6524      0.81144028     281.49818      168.30853      237.78376     -331.45267     -0.63510561    -192.04192      582.15162     -11.616811     -548.36121      469.05276
     14500   14500          493.39431      5534.6524      0.81144028     293.13575      161.06176      235.45243     -322.90093     -0.35968389    -182.15068      563.80523     -11.616811     -556.64395      488.44413
     15000   15000         -4022.4039      5534.6524      0.81144028     298.15         168.14164      258.14339     -326.4027      -0.52750513    -204.06289      591.71719     -11.616811     -524.75287      496.79924
     15500   15500          951.57714      5534.6524      0.81144028     298.23143      176.58031      230.40664     -310.89593     -0.15902909    -216.89783      609.74196     -11.616811     -523.63604      496.93493
     16000   16000         -1460.5184      5534.6524      0.81144028     303.32728      160.02805      221.29163     -325.27787     -0.35018631    -211.99886      601.35177     -11.616811     -567.30521      505.426
     16500   16500         -475.0577       5534.6524      0.81144028     291.67426      174.97838      229.29349     -320.56359     -0.18514829    -201.0908       583.43879     -11.616811     -546.92809      486.00888
     17000   17000         -1890.1424      5534.6524      0.81144028     292.81973      158.45047      239.89196     -323.00871     -0.72599383    -206.1546       594.66349     -11.616811     -550.18673      487.91756
     17500   17500          5658.5268      5534.6524      0.81144028     305.15804      153.73856      231.71281     -330.02063     -0.63177104    -201.64376      589.14239     -11.616811     -570.56877      508.47656
     18000   18000         -414.63012      5534.6524      0.81144028     302.48321      161.72186      228.32682     -317.76614     -0.34462651    -201.16029      576.29991     -11.616811     -565.61618      504.01955
     18500   18500         -286.9485       5534.6524      0.81144028     298.56685      152.2661       239.42395     -327.09313     -0.14013864    -211.53265      601.24311     -11.616811     -559.2916       497.49383
     19000   19000         -1167.0916      5534.6524      0.81144028     304.06272      172.04338      239.31511     -313.76694     -0.70315546    -194.66008      575.61301     -11.616811     -534.07702      506.65144
     19500   19500         -3847.0964      5534.6524      0.81144028     295.66727      169.87655      230.98162     -324.33494     -0.25907847    -212.46641      593.61415     -11.616811     -556.18283      492.66233
     20000   20000         -5192.1689      5534.6524      0.81144028     295.09932      157.44335      230.66184     -320.23804     -0.083067099   -184.95759      579.10518     -11.616811     -551.28293      491.71597
     20500   20500         -1531.8402      5534.6524      0.81144028     290.22947      175.34118      227.52776     -325.22926     -0.40122102    -212.40657      606.11304     -11.616811     -541.76892      483.60148
     21000   21000         -729.52034      5534.6524      0.81144028     313.36121      160.54886      210.90578     -326.4915      -0.53716029    -202.75611      590.4192      -11.616811     -581.36601      522.14526
     21500   21500         -1491.1838      5534.6524      0.81144028     281.04368      170.93189      229.23392     -325.05344     -0.96070685    -212.23928      590.24673     -11.616811     -561.11469      468.29544
     22000   22000         -511.90568      5534.6524      0.81144028     303.04279      164.18751      231.22032     -322.17434     -0.71608357    -193.33423      576.10765     -11.616811     -557.76161      504.95196
     22500   22500         -1395.1658      5534.6524      0.81144028     296.85332      168.89273      248.28553     -324.13352     -1.3118625     -191.05933      564.43467     -11.616811     -546.80474      494.63862
     23000   23000          4221.8738      5534.6524      0.81144028     309.88665      164.04146      213.70571     -318.03406     -0.6987354     -191.75113      577.03357     -11.616811     -569.42728      516.3557
     23500   23500          1071.9809      5534.6524      0.81144028     299.0292       156.18487      250.06593     -330.64062     -0.44759473    -186.42981      577.69317     -11.616811     -546.78267      498.26422
     24000   24000          649.4587       5534.6524      0.81144028     301.45066      182.87958      233.23999     -342.82558     -0.68019487    -198.07449      583.76689     -11.616811     -554.92738      502.29905
     24500   24500          1955.1061      5534.6524      0.81144028     293.14721      150.96612      239.4449      -343.0378      -0.34525821    -188.82431      577.74623     -11.616811     -576.88245      488.46323
     25000   25000         -6614.1203      5534.6524      0.81144028     308.47468      162.79141      236.52257     -333.48871     -0.80695707    -213.70586      593.7362      -11.616811     -568.15743      514.00297
     25500   25500          2556.6573      5534.6524      0.81144028     297.32594      174.81893      231.4496      -327.03786     -0.78871292    -202.55606      588.05241     -11.616811     -549.75543      495.42614
     26000   26000         -2728.1282      5534.6524      0.81144028     298.49102      174.88112      248.70564     -329.01497     -1.4311795     -189.01044      556.42399     -11.616811     -551.94147      497.36747
     26500   26500         -263.70509      5534.6524      0.81144028     289.48759      178.20855      253.09219     -329.93615     -0.14988513    -210.21974      584.92749     -11.616811     -536.45194      482.3653
     27000   27000         -737.49734      5534.6524      0.81144028     293.27978      179.60234      224.02857     -326.31314     -0.66751587    -187.35905      580.03957     -11.616811     -543.80234      488.68412
     27500   27500          2398.8196      5534.6524      0.81144028     305.08258      172.80093      231.55049     -326.17719     -0.52650907    -193.60286      570.31844     -11.616811     -558.4289       508.35081
     28000   28000          4030.1371      5534.6524      0.81144028     292.17868      166.80317      246.12925     -323.25809     -0.22391524    -174.22489      560.63074     -11.616811     -536.59389      486.84939
     28500   28500         -1405.7991      5534.6524      0.81144028     314.34665      157.67419      229.78873     -325.46436     -0.97820116    -185.33596      563.03583     -11.616811     -574.60518      523.78728
     29000   29000          4865.3849      5534.6524      0.81144028     298.50827      172.12799      223.02302     -322.64306     -0.58202231    -201.38052      594.57887     -11.616811     -547.68307      497.39622
     29500   29500          2340.7741      5534.6524      0.81144028     312.91156      173.67764      219.8207      -329.27231     -0.29732039    -200.30026      578.81554     -11.616811     -571.48511      521.39603
     30000   30000          851.76199      5534.6524      0.81144028     289.19283      176.59818      220.7418      -326.7732      -0.17953538    -180.32063      556.81436     -11.616811     -566.32613      481.87415
     30500   30500         -3526.1487      5534.6524      0.81144028     295.60468      167.24967      216.12923     -332.769       -0.34820033    -215.63457      600.85953     -11.616811     -577.40636      492.55804
     31000   31000          1461.8021      5534.6524      0.81144028     297.64586      164.71189      215.71508     -321.72004     -0.75317162    -212.87985      587.92354     -11.616811     -580.37207      495.9592
     31500   31500          3980.2853      5534.6524      0.81144028     297.10207      173.91785      224.70273     -326.87113     -0.58728612    -198.272        598.03258     -11.616811     -542.41809      495.0531
     32000   32000          1265.4543      5534.6524      0.81144028     294.84095      175.75997      238.1435      -332.01612     -1.154163      -198.19474      593.41524     -11.616811     -537.02458      491.28546
     32500   32500         -4164.6693      5534.6524      0.81144028     308.7105       165.82808      225.60209     -335.33386     -0.19713553    -220.26311      616.44652     -11.616811     -560.45275      514.39592
     33000   33000         -620.72803      5534.6524      0.81144028     300.82592      174.23016      243.37003     -326.22802     -0.79554383    -197.90912      573.96216     -11.616811     -546.99678      501.25805
     33500   33500         -2269.2967      5534.6524      0.81144028     313.10103      168.82371      243.90751     -327.80894     -0.578549      -207.18973      604.78379     -11.616811     -531.04891      521.71174
     34000   34000         -415.05738      5534.6524      0.81144028     294.80667      176.2434       246.45602     -330.77974     -0.5637206     -188.45854      567.86428     -11.616811     -541.89266      491.22834
     34500   34500          2166.0174      5534.6524      0.81144028     309.94991      163.85586      225.55605     -327.34641     -0.78397386    -201.80181      584.43846     -11.616811     -567.5073       516.4611
     35000   35000          1895.4835      5534.6524      0.81144028     301.54734      170.3469       225.84096     -317.67289     -0.5291286     -187.2108       567.913       -11.616811     -553.36019      502.46013
     35500   35500         -618.14857      5534.6524      0.81144028     300.08825      169.92213      238.54409     -330.58171     -0.68397319    -199.23235      580.95667     -11.616811     -552.0126       500.02889
     36000   36000          1332.7299      5534.6524      0.81144028     287.63485      165.9532       242.71757     -326.49179     -0.31220954    -188.41125      591.46644     -11.616811     -526.93633      479.27814
     36500   36500          1371.559       5534.6524      0.81144028     309.02166      162.88247      219.35797     -326.91603     -0.43319676    -192.72764      582.07814     -11.616811     -568.46898      514.91439
     37000   37000          2549.3425      5534.6524      0.81144028     298.27273      156.60064      223.64803     -309.72817     -0.47027517    -193.48227      579.4193      -11.616811     -556.06167      497.00374
     37500   37500         -1890.7566      5534.6524      0.81144028     292.54656      171.5868       242.71972     -336.10573     -0.61638367    -197.91004      587.54146     -11.616811     -545.88355      487.46238
     38000   38000          280.63822      5534.6524      0.81144028     301.06421      159.25568      241.69042     -326.80816     -0.6196655     -206.50871      589.33123     -11.616811     -556.13253      501.6551
     38500   38500          3164.4996      5534.6524      0.81144028     294.56668      177.78214      221.81667     -322.88833     -0.73070147    -195.78528      586.59192     -11.616811     -545.1369       490.82845
     39000   39000          51.022592      5534.6524      0.81144028     294.09714      172.0107       219.6536      -318.04473     -0.61911585    -204.36946      599.1049      -11.616811     -544.98168      490.04608
     39500   39500          260.53098      5534.6524      0.81144028     282.28577      179.24695      239.43778     -322.24114     -0.7699227     -204.20349      598.39753     -11.616811     -523.70429      470.36511
     40000   40000          2784.8068      5534.6524      0.81144028     301.52005      172.22036      209.39624     -322.69944     -0.61035882    -184.90909      575.68326     -11.616811     -564.6232       502.41466
     40500   40500          5049.2313      5534.6524      0.81144028     294.11478      172.61238      224.20271     -324.55508     -0.051917728   -199.95076      588.84688     -11.616811     -551.56924      490.07546
     41000   41000         -1070.0829      5534.6524      0.81144028     283.45917      177.23762      230.34519     -321.74109     -0.56323547    -199.33072      593.41443     -11.616811     -533.40113      472.3203
     41500   41500          785.50013      5534.6524      0.81144028     311.69921      177.19241      211.55214     -327.0067      -0.24694889    -190.15035      597.70027     -11.616811     -543.72291      519.37593
     42000   42000         -1643.871       5534.6524      0.81144028     302.98951      167.60012      211.51527     -330.97645     -0.03357902    -188.21919      583.38        -11.616811     -569.8115       504.86319
     42500   42500          2775.6684      5534.6524      0.81144028     292.24399      187.49657      226.52124     -334.96841     -0.53149719    -200.54955      582.44876     -11.616811     -551.43558      486.95821
     43000   43000          3817.1876      5534.6524      0.81144028     295.96137      170.42354      208.89129     -316.53158     -0.63843462    -200.74725      586.84633     -11.616811     -564.31703      493.15238
     43500   43500         -2353.2038      5534.6524      0.81144028     298.15         159.64618      226.10704     -321.69736     -0.69988078    -200.7609       576.31824     -11.616811     -574.19078      496.79924
     44000   44000          4210.4927      5534.6524      0.81144028     314.8061       177.73561      220.80189     -319.0948      -0.32609032    -192.52155      563.85687     -11.616811     -563.743        524.55284
     44500   44500          389.27731      5534.6524      0.81144028     301.2157       169.59427      231.31148     -323.91133     -1.1438199     -173.59001      534.89203     -11.616811     -576.07251      501.90753
     45000   45000         -47.61179       5534.6524      0.81144028     291.36663      197.27386      216.02886     -320.07127     -0.42537507    -191.26653      553.49507     -11.616811     -558.55116      485.49629
     45500   45500          1579.5201      5534.6524      0.81144028     286.46297      166.74667      243.4514      -327.92438     -0.5229745     -184.63333      566.9305      -11.616811     -550.23138      477.32547
     46000   46000          928.01845      5534.6524      0.81144028     317.89775      164.73126      210.0769      -331.66286     -0.4665189     -187.34835      553.25626     -11.616811     -604.55125      529.70439
     46500   46500         -3542.0302      5534.6524      0.81144028     299.85593      161.14082      227.93538     -325.98516     -0.87634626    -177.39522      553.84631     -11.616811     -574.15232      499.64178
     47000   47000         -176.4626       5534.6524      0.81144028     300.05601      161.68325      225.13445     -325.64777     -0.24552759    -182.08641      560.5809      -11.616811     -573.99161      499.97517
     47500   47500          2320.3468      5534.6524      0.81144028     297.17219      161.69412      228.78216     -327.55324     -0.31814941    -195.04928      581.69159     -11.616811     -564.16568      495.16995
     48000   48000          373.0597       5534.6524      0.81144028     298.65833      164.6331       221.16335     -319.97164     -0.77132568    -184.2008       565.83807     -11.616811     -566.82306      497.64626
     48500   48500          2052.7942      5534.6524      0.81144028     303.74601      167.06926      230.61164     -327.04471     -0.46223746    -194.48937      561.86152     -11.616811     -575.63883      506.12372
     49000   49000          4205.1951      5534.6524      0.81144028     309.51603      172.41457      212.46979     -330.40884     -0.28948437    -192.35009      570.442       -11.616811     -580.21466      515.73815
     49500   49500         -3482.0433      5534.6524      0.81144028     287.51857      172.68431      208.42569     -312.3149      -0.40714734    -202.59445      569.84751     -11.616811     -577.32321      479.08437
     50000   50000          6331.4224      5534.6524      0.81144028     305.05732      166.01205      220.39445     -326.27224      0.44860203    -179.02806      559.86418     -11.616811     -571.92272      508.30872
     50500   50500          2607.2553      5534.6524      0.81144028     289.78616      188.67612      220.85972     -316.45596     -0.70558589    -206.55373      583.46393     -11.616811     -544.87466      482.8628
     51000   51000          4929.8476      5534.6524      0.81144028     311.29525      166.49407      212.38776     -323.50708     -0.5663357     -193.79935      570.13213     -11.616811     -581.98758      518.70281
     51500   51500         -2482.7078      5534.6524      0.81144028     298.90173      176.11648      217.93828     -315.90037     -0.29937861    -191.90037      566.14997     -11.616811     -561.30398      498.05184
     52000   52000          2596.8672      5534.6524      0.81144028     283.44925      170.05347      225.05302     -324.83226     -0.53394277    -203.09503      577.94631     -11.616811     -569.34179      472.30378
     52500   52500         -2758.9736      5534.6524      0.81144028     290.78404      174.62251      240.87205     -313.84748     -1.1558504     -184.06198      550.28705     -11.616811     -546.65159      484.52553
     53000   53000          1629.9878      5534.6524      0.81144028     283.29988      180.49073      233.63518     -318.27669     -0.94708483    -195.62831      566.03658     -11.616811     -548.14317      472.05489
     53500   53500         -2537.344       5534.6524      0.81144028     297.23262      176.69427      236.47601     -316.50056     -0.34711519    -193.42797      572.74173     -11.616811     -538.55778      495.27063
     54000   54000         -3290.4982      5534.6524      0.81144028     306.78053      172.79738      219.16121     -313.77602     -0.55551192    -200.97293      584.15951     -11.616811     -552.67555      511.18006
     54500   54500         -4462.322       5534.6524      0.81144028     315.93747      176.07639      222.40009     -315.68292     -0.016093712   -203.29927      556.30315     -11.616811     -577.29945      526.43802
     55000   55000          2708.4146      5534.6524      0.81144028     304.21871      160.25601      245.16906     -315.53048     -0.60925344    -198.38862      563.83318     -11.616811     -557.98347      506.91137
     55500   55500          2609.1223      5534.6524      0.81144028     312.88368      157.65429      231.12296     -317.52995     -1.2988866     -192.33273      562.53755     -11.616811     -572.39924      521.34957
     56000   56000         -1255.1863      5534.6524      0.81144028     301.85151      165.64186      227.76828     -323.44617     -0.57973553    -194.35612      582.32862     -11.616811     -555.89017      502.96697
     56500   56500          1740.3914      5534.6524      0.81144028     286.00557      159.99917      235.92951     -305.76649     -0.61773873    -199.11639      558.64456     -11.616811     -564.28019      476.56331
     57000   57000          148.77977      5534.6524      0.81144028     281.57657      166.6213       247.5151      -327.93633     -1.0709236     -202.20832      573.73998     -11.616811     -556.88065      469.18339
     57500   57500         -2077.8803      5534.6524      0.81144028     301.90288      153.2765       223.10174     -315.91978     -0.90036442    -196.74637      558.85447     -11.616811     -591.71972      503.05256
     58000   58000         -2084.1664      5534.6524      0.81144028     292.22862      164.36337      224.61684     -310.29738     -0.86382062    -202.1701       561.60092     -11.616811     -575.55066      486.93261
     58500   58500         -270.55323      5534.6524      0.81144028     297.72071      169.43267      231.4215      -322.86259     -0.978154      -196.43112      583.63009     -11.616811     -547.97513      496.08393
     59000   59000         -541.12807      5534.6524      0.81144028     311.32842      158.6607       236.33436     -320.99398     -0.66819958    -213.24856      578.34486     -11.616811     -574.23285      518.75809
     59500   59500          1033.6802      5534.6524      0.81144028     288.27233      160.71717      233.95776     -325.78945     -0.8458506     -193.57898      566.00934     -11.616811     -572.37739      480.34034
     60000   60000          3022.6292      5534.6524      0.81144028     302.61354      170.91517      234.87429     -322.01925     -0.58015311    -180.70489      549.24227     -11.616811     -561.61083      504.23671
     60500   60500         -3543.7371      5534.6524      0.81144028     300.81716      182.93761      227.65545     -330.70511     -0.26902403    -195.0821       567.52733     -11.616811     -561.54964      501.24346
     61000   61000         -658.29848      5534.6524      0.81144028     296.19905      167.40731      227.61242     -316.31255     -0.91184327    -193.58269      573.87972     -11.616811     -555.15983      493.54843
     61500   61500          2722.8197      5534.6524      0.81144028     311.08181      168.29764      210.2288      -316.43733     -0.49109541    -208.42655      580.99048     -11.616811     -579.47524      518.34717
     62000   62000         -1548.5464      5534.6524      0.81144028     284.58113      188.82082      239.11164     -321.37672     -0.78890452    -185.06112      557.27926     -11.616811     -534.57175      474.1898
     62500   62500          1804.1184      5534.6524      0.81144028     317.62658      172.2504       199.01758     -323.31778     -0.42879379    -191.04339      565.68825     -11.616811     -590.43571      529.25254
     63000   63000         -165.36292      5534.6524      0.81144028     286.22871      183.04748      246.39162     -326.31941     -0.29320158    -187.62616      560.22199     -11.616811     -537.70668      476.93512
     63500   63500          2651.342       5534.6524      0.81144028     303.40217      194.29678      209.30898     -328.90922     -0.26967567    -192.83699      561.44481     -11.616811     -570.44176      505.55078
     64000   64000          1702.4553      5534.6524      0.81144028     306.39252      174.14782      217.45374     -326.59182     -0.89974968    -184.63159      557.63155     -11.616811     -575.8777       510.53353
     64500   64500         -1739.7262      5534.6524      0.81144028     296.78765      174.67714      231.98172     -332.64692     -0.78043821    -179.64691      558.82454     -11.616811     -560.29348      494.5292
     65000   65000          4544.3838      5534.6524      0.81144028     302.81721      159.25914      218.56105     -328.42129     -0.93379297    -188.06929      581.70204     -11.616811     -571.0662       504.57608
     65500   65500          3103.9749      5534.6524      0.81144028     296.66163      167.73229      228.58835     -322.8402      -0.19637775    -198.11662      578.09583     -11.616811     -560.46505      494.31921
     66000   66000          1748.303       5534.6524      0.81144028     301.30083      179.21397      220.12618     -336.01538     -0.79126484    -207.41752      590.44481     -11.616811     -567.94231      502.04938
     66500   66500          555.71533      5534.6524      0.81144028     308.57323      175.49649      208.91552     -327.95563     -0.50199345    -207.0459       582.8006      -11.616811     -580.45064      514.16719
     67000   67000         -3187.8109      5534.6524      0.81144028     298.76235      172.5894       233.57655     -333.24394     -0.066509183   -198.76851      575.3878      -11.616811     -563.83817      497.81959
     67500   67500          934.62999      5534.6524      0.81144028     300.68889      176.64882      209.94722     -325.73613     -0.37771277    -190.65448      571.4405      -11.616811     -572.10065      501.02972
     68000   68000          3697.9925      5534.6524      0.81144028     305.05425      164.02777      220.44321     -327.70293     -0.16255853    -180.99854      567.56496     -11.616811     -570.26511      508.30361
     68500   68500          1781.1445      5534.6524      0.81144028     296.54363      166.34999      233.80706     -324.04739     -0.52115274    -207.76456      586.56042     -11.616811     -559.6474       494.12259
     69000   69000         -1192.3034      5534.6524      0.81144028     280.48662      168.28751      231.78779     -328.93981     -0.5751176     -217.05013      597.57022     -11.616811     -562.73327      467.36723
     69500   69500          2508.0106      5534.6524      0.81144028     289.87412      182.59656      232.55818     -320.84937     -0.59619019    -196.54166      576.82171     -11.616811     -539.6798       483.00936
     70000   70000          514.36395      5534.6524      0.81144028     301.52425      177.59948      216.73534     -321.09195     -0.17886399    -193.30741      574.04877     -11.616811     -559.66102      502.42165
     70500   70500          3810.4833      5534.6524      0.81144028     296.02521      164.95693      244.88413     -327.3968      -0.81659246    -177.57394      568.242       -11.616811     -541.47733      493.25876
     71000   71000          1375.9839      5534.6524      0.81144028     303.46278      159.65735      223.81611     -341.21493     -0.5937048     -192.97636      556.01488     -11.616811     -608.97322      505.65178
     71500   71500          824.19291      5534.6524      0.81144028     287.68874      160.92937      244.64656     -330.49354     -0.4122151     -183.5016       573.84395     -11.616811     -547.61773      479.36792
     72000   72000         -1872.1756      5534.6524      0.81144028     300.50066      182.53021      219.47613     -330.19934     -0.58167456    -196.73418      569.11785     -11.616811     -569.54988      500.71608
     72500   72500         -420.00696      5534.6524      0.81144028     293.04616      156.01425      223.41166     -323.23735     -0.93983478    -183.31626      547.98803     -11.616811     -593.65438      488.29484
     73000   73000         -176.45558      5534.6524      0.81144028     295.78355      155.33047      243.55991     -335.794       -0.95311996    -198.22168      589.53656     -11.616811     -559.64014      492.85609
     73500   73500          2176.512       5534.6524      0.81144028     305.7585       153.81814      242.87974     -315.09286     -0.13139543    -174.74185      557.84788     -11.616811     -548.77416      509.47708
     74000   74000         -823.88792      5534.6524      0.81144028     279.22694      176.75783      232.7069      -329.50661     -0.88246387    -163.87991      553.60259     -11.616811     -544.21889      465.26826
     74500   74500          3145.6477      5534.6524      0.81144028     309.76211      177.27433      239.51949     -338.48711     -0.46348039    -188.01171      564.36659     -11.616811     -559.13733      516.14819
     75000   75000         -1533.5236      5534.6524      0.81144028     295.91985      179.7596       235.07497     -319.91603     -0.7228072     -180.6019       566.03017     -11.616811     -533.77903      493.0832
     75500   75500         -2974.6981      5534.6524      0.81144028     317.47276      162.20258      217.0774      -325.26708     -0.36044359    -192.53967      568.39153     -11.616811     -583.89569      528.99624
     76000   76000          708.97608      5534.6524      0.81144028     293.45736      174.84573      221.70694     -326.69024     -0.22023425    -192.74031      583.12299     -11.616811     -553.77922      488.98003
     76500   76500         -4449.9294      5534.6524      0.81144028     293.62264      174.75836      240.07263     -323.12094     -1.0540669     -192.82055      560.93838     -11.616811     -555.06079      489.25542
     77000   77000         -1687.1337      5534.6524      0.81144028     303.84776      167.57315      231.71767     -323.07384     -0.6679108     -199.85576      564.92098     -11.616811     -572.33826      506.29327
     77500   77500          339.57388      5534.6524      0.81144028     304.66855      170.15193      216.27115     -315.81745     -0.93276249    -174.37934      544.35232     -11.616811     -573.72637      507.66092
     78000   78000         -1997.1135      5534.6524      0.81144028     302.39326      163.99026      240.32252     -329.21067     -0.48660651    -206.93041      575.50132     -11.616811     -569.38817      503.86967
     78500   78500         -3026.8041      5534.6524      0.81144028     311.13149      159.83537      222.12918     -327.86926     -0.72378309    -188.96897      564.21868     -11.616811     -584.87338      518.42994
     79000   79000         -3518.9239      5534.6524      0.81144028     310.45376      164.47756      221.83202     -318.15649     -0.88921219    -200.21641      563.64343     -11.616811     -582.98826      517.30066
     79500   79500          1220.4394      5534.6524      0.81144028     297.22483      162.08269      227.51331     -330.81764     -0.80473987    -189.81871      549.66461     -11.616811     -595.60106      495.25766
     80000   80000         -756.00565      5534.6524      0.81144028     295.93408      149.42372      229.08533     -329.22253     -0.4143311     -192.35048      562.19531     -11.616811     -593.67987      493.10691
     80500   80500          2472.3709      5534.6524      0.81144028     296.60867      180.19044      225.25135     -328.21518     -0.22821431    -195.70652      572.56864     -11.616811     -558.25106      494.23097
     81000   81000         -1429.3518      5534.6524      0.81144028     287.30712      183.15361      226.57185     -315.37574     -0.37467701    -194.60755      570.78087     -11.616811     -542.76553      478.73204
     81500   81500         -450.97807      5534.6524      0.81144028     292.46298      189.02626      213.20822     -339.41774     -1.2298844     -199.15656      554.79704     -11.616811     -597.12583      487.32311
     82000   82000          598.98352      5534.6524      0.81144028     291.24612      177.72935      222.88081     -321.58375     -0.67056436    -195.31973      569.85696     -11.616811     -560.33957      485.2955
     82500   82500          2143.7936      5534.6524      0.81144028     294.93859      162.07436      234.82202     -325.10863     -0.23895783    -198.08663      573.47922     -11.616811     -566.71609      491.44816
     83000   83000          1624.9679      5534.6524      0.81144028     299.38872      169.17902      201.28412     -332.85898     -0.60730541    -192.80664      557.51179     -11.616811     -611.85641      498.86328
     83500   83500         -300.1499       5534.6524      0.81144028     310.11098      156.31255      230.37285     -323.1809      -0.59027535    -192.82262      569.56613     -11.616811     -573.10221      516.72949
     84000   84000         -3194.2584      5534.6524      0.81144028     299.24862      181.12035      223.40747     -334.92036     -0.68097045    -202.54954      592.41014     -11.616811     -554.44377      498.62984
     84500   84500          4947.0565      5534.6524      0.81144028     302.06806      167.8833       226.45575     -326.54249     -0.45624753    -210.06878      596.31541     -11.616811     -559.35573      503.3278
     85000   85000          1672.568       5534.6524      0.81144028     305.55196      161.25706      230.73748     -339.30177     -0.41574918    -190.72707      582.33865     -11.616811     -569.35824      509.13293
     85500   85500          2915.4546      5534.6524      0.81144028     304.98291      166.72693      227.7586      -334.54191     -0.48417252    -193.9284       579.87702     -11.616811     -567.69244      508.18473
     86000   86000          387.5656       5534.6524      0.81144028     301.01596      170.17477      202.66885     -333.17776     -0.57479655    -195.83249      576.66821     -11.616811     -593.28346      501.57471
     86500   86500          1120.4023      5534.6524      0.81144028     293.79872      183.52817      232.43537     -340.5819      -0.63354121    -182.76725      580.03714     -11.616811     -541.04612      489.54883
     87000   87000          1729.4379      5534.6524      0.81144028     300.21793      169.15189      220.93277     -328.02189     -0.62403461    -204.57939      568.90121     -11.616811     -587.78517      500.24498
     87500   87500         -2199.1995      5534.6524      0.81144028     298.08246      173.13069      222.5695      -321.17066     -0.064563071   -176.87532      568.2813      -11.616811     -546.80245      496.6867
     88000   88000         -3800.6538      5534.6524      0.81144028     312.8721       167.33025      202.07619     -316.8418      -0.29211961    -190.69077      579.32814     -11.616811     -571.87473      521.33027
     88500   88500         -4348.7468      5534.6524      0.81144028     283.03256      176.06043      223.54599     -324.91709     -0.51246203    -184.99018      568.69876     -11.616811     -555.56813      471.60945
     89000   89000         -2113.9593      5534.6524      0.81144028     296.45925      174.67676      233.40365     -335.60698     -1.1649659     -173.64556      537.68263     -11.616811     -578.4517       493.98199
     89500   89500          3476.5498      5534.6524      0.81144028     286.58251      168.80195      236.31504     -330.2306      -1.113046      -184.10171      562.70528     -11.616811     -561.54888      477.52465
     90000   90000          670.98482      5534.6524      0.81144028     307.3286       170.94195      214.03807     -332.89957     -0.72704355    -198.20791      563.64909     -11.616811     -597.38003      512.09329
     90500   90500         -274.53383      5534.6524      0.81144028     296.59942      161.08391      236.47089     -326.68609     -0.44637748    -201.23437      565.27232     -11.616811     -579.26977      494.21555
     91000   91000         -2880.703       5534.6524      0.81144028     304.94805      163.03968      225.35163     -328.49314     -0.35119438    -213.97711      574.19926     -11.616811     -593.27377      508.12665
     91500   91500         -1724.5594      5534.6524      0.81144028     306.20741      160.75932      216.74956     -328.64008     -0.72619612    -171.35696      541.22374     -11.616811     -596.0328       510.22508
     92000   92000         -4638.9966      5534.6524      0.81144028     289.72534      177.3644       230.24587     -326.877       -0.86641992    -184.45351      550.5222      -11.616811     -567.64494      482.76146
     92500   92500         -831.488        5534.6524      0.81144028     299.89232      154.91966      214.5978      -330.02847     -0.19628472    -197.40548      553.64662     -11.616811     -618.92032      499.70243
     93000   93000         -1511.1146      5534.6524      0.81144028     313.7325       157.35723      242.48365     -323.83683     -0.27213284    -196.50832      569.69541     -11.616811     -563.97168      522.76393
     93500   93500          383.74353      5534.6524      0.81144028     283.54699      172.25904      234.13383     -318.81684     -0.24466654    -184.773        563.28804     -11.616811     -547.05469      472.46664
     94000   94000          387.88165      5534.6524      0.81144028     294.82325      178.59617      245.08465     -316.68556     -0.3570411     -194.67012      574.93847     -11.616811     -526.67064      491.25596
     94500   94500         -554.51637      5534.6524      0.81144028     294.25706      163.69527      226.30269     -324.20239     -0.60309128    -199.1973       571.37847     -11.616811     -576.24102      490.31254
     95000   95000         -3153.0156      5534.6524      0.81144028     303.97897      182.36489      222.50668     -315.42696     -0.83848729    -189.53584      557.007       -11.616811     -557.55926      506.5119
     95500   95500          889.57029      5534.6524      0.81144028     309.57736      162.50769      215.02771     -311.62603     -0.60277962    -188.21494      568.08596     -11.616811     -568.50628      515.84035
     96000   96000          918.13248      5534.6524      0.81144028     307.75607      158.01604      226.99364     -329.51741     -0.28324857    -199.80297      581.08622     -11.616811     -577.02384      512.80558
     96500   96500         -687.61527      5534.6524      0.81144028     312.37829      173.87112      203.34352     -317.29175     -0.43710473    -187.471        558.58137     -11.616811     -583.12089      520.50745
     97000   97000          1679.9937      5534.6524      0.81144028     304.94382      179.92391      230.22378     -334.22056     -0.6983135     -179.22583      546.76908     -11.616811     -570.1731       508.11959
     97500   97500          2215.624       5534.6524      0.81144028     283.33395      177.6842       214.62925     -321.36648     -0.57160622    -182.13312      556.53065     -11.616811     -568.60628      472.11166
     98000   98000         -464.33888      5534.6524      0.81144028     285.296        178.23354      200.05536     -318.12114     -0.89014111    -186.49046      568.07159     -11.616811     -572.10611      475.38097
     98500   98500          4568.3075      5534.6524      0.81144028     301.15011      166.13135      200.766       -310.68937     -0.75137154    -209.71374      603.88457     -11.616811     -564.31481      501.79824
     99000   99000         -261.97725      5534.6524      0.81144028     307.90938      168.75737      210.48951     -314.15363     -0.5733519     -182.64452      562.1729      -11.616811     -568.8164       513.06103
     99500   99500         -788.74073      5534.6524      0.81144028     301.86912      166.17971      226.93843     -325.08344     -0.40215311    -201.90613      580.39588     -11.616811     -567.70679      502.9963
    100000   100000         2196.4463      5534.6524      0.81144028     290.46604      167.2111       235.24067     -322.42579     -0.76800876    -194.00219      580.72509     -11.616811     -547.76306      483.99566
    100500   100500        -2981.3953      5534.6524      0.81144028     300.8592       167.62241      216.52877     -318.75993     -0.29799558    -194.3001       577.15758     -11.616811     -565.64767      501.3135
Loop time of 738.761 on 6 procs for 100000 steps with 560 atoms

Performance: 11.695 ns/day, 2.052 hours/ns, 135.362 timesteps/s, 75.803 katom-step/s
216.6% CPU use with 1 MPI tasks x 6 OpenMP threads

MPI task timing breakdown:
Section |  min time  |  avg time  |  max time  |%varavg| %total
---------------------------------------------------------------
Pair    | 586.51     | 586.51     | 586.51     |   0.0 | 79.39
Bond    | 47.748     | 47.748     | 47.748     |   0.0 |  6.46
Kspace  | 45.122     | 45.122     | 45.122     |   0.0 |  6.11
Neigh   | 25.649     | 25.649     | 25.649     |   0.0 |  3.47
Comm    | 4.8665     | 4.8665     | 4.8665     |   0.0 |  0.66
Output  | 0.97097    | 0.97097    | 0.97097    |   0.0 |  0.13
Modify  | 26.899     | 26.899     | 26.899     |   0.0 |  3.64
Other   |            | 0.9915     |            |       |  0.13

Nlocal:            560 ave         560 max         560 min
Histogram: 1 0 0 0 0 0 0 0 0 0
Nghost:           9703 ave        9703 max        9703 min
Histogram: 1 0 0 0 0 0 0 0 0 0
Neighs:         361854 ave      361854 max      361854 min
Histogram: 1 0 0 0 0 0 0 0 0 0

Total # of neighbors = 361854
Ave neighs/atom = 646.16786
Ave special neighs/atom = 4.9642857
Neighbor list builds = 1698
Dangerous builds = 0

undump movieemd
unfix                   1
unfix                   2
unfix                   3
unfix                   4
unfix                   5
unfix                   6
unfix                   7
unfix                   8
unfix                   9

write_data              NVT.dat
System init for write_data ...
PPPM initialization ...
  using 12-bit tables for long-range coulomb (src/kspace.cpp:342)
  G vector (1/distance) = 0.23840184
  grid = 9 9 9
  stencil order = 5
  estimated absolute RMS force accuracy = 0.0019477381
  estimated relative force accuracy = 5.8655556e-06
  using double precision FFTW3
  3d grid and FFT values/proc = 4096 729
Generated 0 of 15 mixed pair_coeff terms from sixthpower/geometric mixing rule
WARNING: Not all mixed pair coeffs generated from mixing. Use write_data with 'pair ij' option to store all pair coeffs. (src/write_data.cpp:364)

Total wall time: 0:23:49
